nohup: les entrées sont ignorées
original problem has 200 variables (200 bin, 0 int, 0 impl, 0 cont) and 17013 constraints
original problem has 200 variables (200 bin, 0 int, 0 impl, 0 cont) and 17013 constraints
unknown variable <t_v5859> in line 2 of solution file </home/liudefen/projects/ML4LocalBranch_extend/data/generated_instances/miplib2017_binary/-small/rootsol/test/rootsol-miplib2017_binary-1_transformed.sol>
  (further unknown variables are ignored)
original problem has 10772 variables (10771 bin, 0 int, 0 impl, 1 cont) and 12050 constraints
unknown variable <t_C0000030> in line 2 of solution file </home/liudefen/projects/ML4LocalBranch_extend/data/generated_instances/miplib2017_binary/-small/rootsol/test/rootsol-miplib2017_binary-2_transformed.sol>
  (further unknown variables are ignored)
solution violates original bounds of variable <t_one> [1,1] solution value <0>
./result/saved_models/regression/trained_params_mean_setcover-independentset-combinatorialauction_asymmetric_firstsol_k_prime_epoch163.pth
./result/saved_models/rl/reinforce/setcovering/checkpoint_trained_reward3_simplepolicy_rl4lb_reinforce_trainset_setcovering-small_lr0.01_epochs7.pth
miplib2017_binary-small
rootsol
./result/generated_instances/miplib2017_binary/-small/rootsol/scip/heuristic_mode/lb-from-rootsol-t_total1200s-small_scip_baseline/seed100/
seed: 100
cpu
instance:  0
create a new SCIP model
The initial incumbent of miplib2017_binary-0_transformed_2club200v15p5scn is successfully added to MIP model
miplib2017_binary-0_transformed_2club200v15p5scn
N of variables: 200
N of binary vars: 200
N of constraints: 17013
Initial obj of MIP: -27.0
Instance: miplib2017_binary-0_transformed_2club200v15p5scn
Status of SCIP_baseline:  timelimit
Best obj of SCIP_baseline:  -48.0
Solving time:  1200.000498


[array([-27., -32., -33., -41., -42., -47., -48.]), array([  0.      ,  31.360625,  78.757969, 137.455175, 137.473193,
       715.897174, 715.921095])]
instance:  1
create a new SCIP model
The initial incumbent of miplib2017_binary-0_transformed_2club200v15p5scn is successfully added to MIP model
miplib2017_binary-0_transformed_2club200v15p5scn
N of variables: 200
N of binary vars: 200
N of constraints: 17013
Initial obj of MIP: 0.0
Instance: miplib2017_binary-0_transformed_2club200v15p5scn
Status of SCIP_baseline:  timelimit
Best obj of SCIP_baseline:  -57.0
Solving time:  1200.000516


[array([  0., -27., -40., -42., -50., -51., -52., -54., -57.]), array([0.00000000e+00, 1.03888000e-01, 1.08979746e+02, 1.09004426e+02,
       1.21403569e+02, 1.21429373e+02, 1.34768396e+02, 1.04368884e+03,
       1.06096166e+03])]
instance:  2
create a new SCIP model
Traceback (most recent call last):
  File "evaluation_scip_baseline.py", line 73, in <module>
    scip_as_baseline.execute_heuristic_baseline(
  File "/home/liudefen/projects/ML4LocalBranch_extend/execute_heuristics.py", line 407, in execute_heuristic_baseline
    assert MIP_model.checkSol(
AssertionError: Warning: The initial incumbent of instance miplib2017_binary-1_transformed_30_70_45_05_100 is not feasible!
